78 78
38 43
26 36
38 78
9 48
24 21
33 62
23 17
26 34
7 2
17 6
31 65
24 64
12 56
29 51
13 60
15 38
6 76
35 26
5 20
11 33
1 9
33 30
2 1
4 67
35 41
32 52
18 53
34 28
16 71
37 12
2 10
14 5
29 22
1 23
12 37
22 18
37 47
36 13
21 54
23 72
28 31
3 11
27 7
3 42
20 55
20 15
16 39
4 16
11 57
8 25
21 8
10 74
9 66
18 4
6 40
10 49
39 75
25 50
22 59
13 68
39 35
32 46
34 45
17 3
7 24
19 19
36 77
31 32
25 69
5 29
14 27
28 63
8 14
27 44
30 61
19 70
15 73
30 58
